; benchmark generated from python API
(set-info :status unknown)
(declare-fun W_S2_V2 () Bool)
(declare-fun W_S2_V1 () Bool)
(declare-fun DISJ_W_S2_R_S1 () Bool)
(declare-fun W_S2_V5 () Bool)
(declare-fun R_S2_V4 () Bool)
(declare-fun R_S2_V3 () Bool)
(declare-fun W_S2_V3 () Bool)
(declare-fun W_S1_V4 () Bool)
(declare-fun DISJ_W_S1_R_S2 () Bool)
(declare-fun DISJ_W_S2_R_S2 () Bool)
(declare-fun R_E1_V4 () Bool)
(declare-fun R_E1_V5 () Bool)
(declare-fun W_S1_V5 () Bool)
(declare-fun R_S2_V5 () Bool)
(declare-fun R_S2_V2 () Bool)
(declare-fun R_S2_V1 () Bool)
(declare-fun R_S1_V4 () Bool)
(declare-fun R_S1_V5 () Bool)
(declare-fun R_S1_V2 () Bool)
(declare-fun R_S1_V3 () Bool)
(declare-fun R_S1_V1 () Bool)
(declare-fun R_E1_V2 () Bool)
(declare-fun DISJ_W_S2_R_E1 () Bool)
(declare-fun DISJ_W_S1_W_S2 () Bool)
(declare-fun R_E1_V3 () Bool)
(declare-fun DISJ_W_S1_R_S1 () Bool)
(declare-fun W_S2_V4 () Bool)
(declare-fun W_S1_V3 () Bool)
(declare-fun W_S1_V2 () Bool)
(declare-fun W_S1_V1 () Bool)
(declare-fun R_E1_V1 () Bool)
(declare-fun DISJ_W_S1_R_E1 () Bool)
(assert
 (let (($x1879 (not W_S2_V2)))
 (let (($x2113 (not W_S2_V1)))
 (let (($x2467 (and $x2113 $x1879)))
 (let (($x3987 (not $x2467)))
 (let (($x420 (not (and (not R_S2_V3) (not R_S2_V4) (not W_S2_V5) DISJ_W_S2_R_S1))))
 (let (($x5539 (not (and (not R_S2_V4) (not W_S2_V5) (not W_S2_V3) DISJ_W_S2_R_S1))))
 (let (($x5735 (not (and (not R_S2_V3) (not W_S1_V4) (not W_S2_V5) DISJ_W_S2_R_S1))))
 (let (($x2327 (not (and DISJ_W_S1_R_S2 DISJ_W_S2_R_S1))))
 (let (($x2328 (not (and $x1879 DISJ_W_S2_R_S2))))
 (let (($x1982 (not (and DISJ_W_S2_R_S1 DISJ_W_S2_R_S2))))
 (let (($x5006 (not (and W_S1_V4 R_E1_V4))))
 (let (($x2109 (not (and W_S1_V5 R_E1_V5))))
 (let (($x4992 (forall ((V3_0 Int) )(forall ((V2_0 Int) )(forall ((V5_0 Int) )(forall ((V4_0 Int) )(forall ((MW_S1_V1 Bool) )(forall ((MW_S1_V3 Bool) )(forall ((MW_S1_V2 Bool) )(forall ((MW_S1_V5 Bool) )(forall ((MW_S1_V4 Bool) )(forall ((MW_S2_V1 Bool) )(forall ((MW_S2_V3 Bool) )(forall ((MW_S2_V2 Bool) )(forall ((MW_S2_V5 Bool) )(forall ((MW_S2_V4 Bool) )(forall ((S1_V1_!2447 Int) )(forall ((S1_V1_!2464 Int) )(forall ((S1_V1_!2474 Int) )(forall ((S2_V5_!2456 Int) )(forall ((S2_V5_!2461 Int) )(forall ((S2_V5_!2472 Int) )(forall ((S2_V5_!2482 Int) )(forall ((S1_V3_!2448 Int) )(forall ((S1_V3_!2465 Int) )(forall ((S1_V3_!2475 Int) )(forall ((S1_V2_!2449 Int) )(forall ((S1_V2_!2466 Int) )(forall ((S1_V2_!2476 Int) )(forall ((E1_!2446 Int) )(forall ((E1_!2452 Int) )(forall ((E1_!2463 Int) )(forall ((S2_V4_!2457 Int) )(forall ((S2_V4_!2462 Int) )(forall ((S2_V4_!2473 Int) )(forall ((S2_V4_!2483 Int) )(forall ((S1_V5_!2450 Int) )(forall ((S1_V5_!2467 Int) )(forall ((S1_V5_!2477 Int) )(forall ((S2_V1_!2453 Int) )(forall ((S2_V1_!2458 Int) )(forall ((S2_V1_!2469 Int) )(forall ((S2_V1_!2479 Int) )(forall ((S1_V4_!2451 Int) )(forall ((S1_V4_!2468 Int) )(forall ((S1_V4_!2478 Int) )(forall ((S2_V2_!2455 Int) )(forall ((S2_V2_!2460 Int) )(forall ((S2_V2_!2471 Int) )(forall ((S2_V2_!2481 Int) )(forall ((S2_V3_!2454 Int) )(forall ((S2_V3_!2459 Int) )(forall ((S2_V3_!2470 Int) )(forall ((S2_V3_!2480 Int) )(let (($x4892 (= (ite MW_S2_V4 S2_V4_!2462 (ite MW_S1_V4 S1_V4_!2451 V4_0)) (ite MW_S2_V4 S2_V4_!2483 (ite MW_S1_V4 S1_V4_!2478 (ite MW_S2_V4 S2_V4_!2473 (ite MW_S1_V4 S1_V4_!2468 V4_0)))))))
 (let (($x1711 (= (ite MW_S2_V5 S2_V5_!2461 (ite MW_S1_V5 S1_V5_!2450 V5_0)) (ite MW_S2_V5 S2_V5_!2482 (ite MW_S1_V5 S1_V5_!2477 (ite MW_S2_V5 S2_V5_!2472 (ite MW_S1_V5 S1_V5_!2467 V5_0)))))))
 (let ((?x4720 (ite MW_S1_V2 S1_V2_!2466 V2_0)))
 (let ((?x5944 (ite MW_S2_V2 S2_V2_!2471 ?x4720)))
 (let ((?x4671 (ite MW_S1_V2 S1_V2_!2476 ?x5944)))
 (let ((?x3893 (ite MW_S2_V2 S2_V2_!2481 ?x4671)))
 (let ((?x5888 (ite MW_S1_V2 S1_V2_!2449 V2_0)))
 (let ((?x1765 (ite MW_S2_V2 S2_V2_!2460 ?x5888)))
 (let (($x3476 (= (ite MW_S2_V3 S2_V3_!2459 (ite MW_S1_V3 S1_V3_!2448 V3_0)) (ite MW_S2_V3 S2_V3_!2480 (ite MW_S1_V3 S1_V3_!2475 (ite MW_S2_V3 S2_V3_!2470 (ite MW_S1_V3 S1_V3_!2465 V3_0)))))))
 (let ((?x683 (ite MW_S1_V1 S1_V1_!2464 E1_!2463)))
 (let ((?x674 (ite MW_S2_V1 S2_V1_!2469 ?x683)))
 (let ((?x2956 (+ 1 ?x674)))
 (let ((?x3075 (ite MW_S1_V1 S1_V1_!2474 ?x2956)))
 (let ((?x2408 (ite MW_S2_V1 S2_V1_!2479 ?x3075)))
 (let ((?x1750 (ite MW_S2_V1 S2_V1_!2453 E1_!2452)))
 (let ((?x1390 (+ 1 ?x1750)))
 (let ((?x3231 (ite MW_S2_V1 S2_V1_!2458 ?x1390)))
 (let (($x5952 (and (not (<= V2_0 E1_!2446)) (>= (ite MW_S1_V1 S1_V1_!2447 E1_!2446) (+ (- 1) ?x5888)) (not (<= ?x5888 E1_!2452)) (not (<= (ite MW_S2_V2 S2_V2_!2455 ?x5888) ?x1390)) (>= ?x3231 (+ (- 1) ?x1765)) (not (<= V2_0 E1_!2463)) (not (<= ?x5944 ?x2956)) (>= ?x2408 (+ (- 1) ?x3893)))))
 (let (($x2563 (= S2_V3_!2480 S2_V3_!2470)))
 (let ((?x1317 (ite MW_S1_V4 S1_V4_!2468 V4_0)))
 (let ((?x2627 (ite MW_S2_V4 S2_V4_!2473 ?x1317)))
 (let ((?x293 (ite MW_S1_V4 S1_V4_!2478 ?x2627)))
 (let (($x1036 (not R_S2_V4)))
 (let ((?x88 (ite MW_S1_V5 S1_V5_!2467 V5_0)))
 (let ((?x1787 (ite MW_S2_V5 S2_V5_!2472 ?x88)))
 (let ((?x2850 (ite MW_S1_V5 S1_V5_!2477 ?x1787)))
 (let (($x5434 (not R_S2_V5)))
 (let ((?x1124 (ite MW_S1_V3 S1_V3_!2465 V3_0)))
 (let ((?x2275 (ite MW_S2_V3 S2_V3_!2470 ?x1124)))
 (let ((?x2450 (ite MW_S1_V3 S1_V3_!2475 ?x2275)))
 (let (($x2392 (not R_S2_V3)))
 (let (($x3337 (and (or (not R_S2_V1) (= ?x3075 ?x683)) (or $x2392 (= ?x2450 ?x1124)) (or (not R_S2_V2) (= ?x4671 ?x4720)) (or $x5434 (= ?x2850 ?x88)) (or $x1036 (= ?x293 ?x1317)))))
 (let (($x1426 (not $x3337)))
 (let (($x600 (= S2_V3_!2480 S2_V3_!2459)))
 (let (($x7 (and (or (not R_S2_V1) (= ?x3075 ?x1390)) (or $x2392 (= ?x2450 (ite MW_S2_V3 S2_V3_!2454 (ite MW_S1_V3 S1_V3_!2448 V3_0)))) (or (not R_S2_V2) (= ?x4671 (ite MW_S2_V2 S2_V2_!2455 ?x5888))) (or $x5434 (= ?x2850 (ite MW_S2_V5 S2_V5_!2456 (ite MW_S1_V5 S1_V5_!2450 V5_0)))) (or $x1036 (= ?x293 (ite MW_S2_V4 S2_V4_!2457 (ite MW_S1_V4 S1_V4_!2451 V4_0)))))))
 (let (($x3543 (not $x7)))
 (let (($x2425 (= S2_V3_!2470 S2_V3_!2459)))
 (let (($x570 (and (or (not R_S2_V1) (= ?x683 ?x1390)) (or $x2392 (= ?x1124 (ite MW_S2_V3 S2_V3_!2454 (ite MW_S1_V3 S1_V3_!2448 V3_0)))) (or (not R_S2_V2) (= ?x4720 (ite MW_S2_V2 S2_V2_!2455 ?x5888))) (or $x5434 (= ?x88 (ite MW_S2_V5 S2_V5_!2456 (ite MW_S1_V5 S1_V5_!2450 V5_0)))) (or $x1036 (= ?x1317 (ite MW_S2_V4 S2_V4_!2457 (ite MW_S1_V4 S1_V4_!2451 V4_0)))))))
 (let (($x3226 (not $x570)))
 (let (($x606 (= S2_V3_!2454 S2_V3_!2480)))
 (let (($x835 (and (or (not R_S2_V1) (= E1_!2452 ?x3075)) (or $x2392 (= (ite MW_S1_V3 S1_V3_!2448 V3_0) ?x2450)) (or (not R_S2_V2) (= ?x5888 ?x4671)) (or $x5434 (= (ite MW_S1_V5 S1_V5_!2450 V5_0) ?x2850)) (or $x1036 (= (ite MW_S1_V4 S1_V4_!2451 V4_0) ?x293)))))
 (let (($x5296 (not $x835)))
 (let (($x2108 (= S2_V3_!2454 S2_V3_!2470)))
 (let (($x2685 (and (or (not R_S2_V1) (= E1_!2452 ?x683)) (or $x2392 (= (ite MW_S1_V3 S1_V3_!2448 V3_0) ?x1124)) (or (not R_S2_V2) (= ?x5888 ?x4720)) (or $x5434 (= (ite MW_S1_V5 S1_V5_!2450 V5_0) ?x88)) (or $x1036 (= (ite MW_S1_V4 S1_V4_!2451 V4_0) ?x1317)))))
 (let (($x813 (not $x2685)))
 (let (($x338 (= S2_V3_!2454 S2_V3_!2459)))
 (let (($x1273 (or $x1036 (= (ite MW_S1_V4 S1_V4_!2451 V4_0) (ite MW_S2_V4 S2_V4_!2457 (ite MW_S1_V4 S1_V4_!2451 V4_0))))))
 (let (($x1598 (or $x5434 (= (ite MW_S1_V5 S1_V5_!2450 V5_0) (ite MW_S2_V5 S2_V5_!2456 (ite MW_S1_V5 S1_V5_!2450 V5_0))))))
 (let (($x367 (or $x2392 (= (ite MW_S1_V3 S1_V3_!2448 V3_0) (ite MW_S2_V3 S2_V3_!2454 (ite MW_S1_V3 S1_V3_!2448 V3_0))))))
 (let (($x5706 (and (or (not R_S2_V1) (= E1_!2452 ?x1390)) $x367 (or (not R_S2_V2) (= ?x5888 (ite MW_S2_V2 S2_V2_!2455 ?x5888))) $x1598 $x1273)))
 (let (($x4759 (not $x5706)))
 (let (($x5185 (= S2_V2_!2481 S2_V2_!2455)))
 (let (($x1916 (and (or (not R_S2_V1) (= ?x3075 E1_!2452)) (or $x2392 (= ?x2450 (ite MW_S1_V3 S1_V3_!2448 V3_0))) (or (not R_S2_V2) (= ?x4671 ?x5888)) (or $x5434 (= ?x2850 (ite MW_S1_V5 S1_V5_!2450 V5_0))) (or $x1036 (= ?x293 (ite MW_S1_V4 S1_V4_!2451 V4_0))))))
 (let (($x2859 (not $x1916)))
 (let (($x2384 (= S2_V2_!2471 S2_V2_!2481)))
 (let (($x5076 (and (or (not R_S2_V1) (= ?x683 ?x3075)) (or $x2392 (= ?x1124 ?x2450)) (or (not R_S2_V2) (= ?x4720 ?x4671)) (or $x5434 (= ?x88 ?x2850)) (or $x1036 (= ?x1317 ?x293)))))
 (let (($x1569 (not $x5076)))
 (let (($x2176 (= S2_V2_!2471 S2_V2_!2455)))
 (let (($x4666 (and (or (not R_S2_V1) (= ?x683 E1_!2452)) (or $x2392 (= ?x1124 (ite MW_S1_V3 S1_V3_!2448 V3_0))) (or (not R_S2_V2) (= ?x4720 ?x5888)) (or $x5434 (= ?x88 (ite MW_S1_V5 S1_V5_!2450 V5_0))) (or $x1036 (= ?x1317 (ite MW_S1_V4 S1_V4_!2451 V4_0))))))
 (let (($x31 (not $x4666)))
 (let (($x5363 (not R_S1_V4)))
 (let (($x3924 (or $x5363 (= ?x2627 V4_0))))
 (let (($x1344 (not R_S1_V5)))
 (let (($x5021 (or $x1344 (= ?x1787 V5_0))))
 (let (($x3728 (not R_S1_V2)))
 (let (($x3698 (or $x3728 (= ?x5944 V2_0))))
 (let (($x1051 (not R_S1_V3)))
 (let (($x3168 (or $x1051 (= ?x2275 V3_0))))
 (let (($x2190 (and (or (not R_S1_V1) (= ?x674 (+ (- 1) E1_!2446))) $x3168 $x3698 $x5021 $x3924)))
 (let (($x3341 (not $x2190)))
 (let (($x5315 (= S1_V4_!2468 S1_V4_!2478)))
 (let (($x4663 (or $x5363 (= V4_0 ?x2627))))
 (let (($x1876 (or $x1344 (= V5_0 ?x1787))))
 (let (($x3303 (or $x3728 (= V2_0 ?x5944))))
 (let (($x3352 (or $x1051 (= V3_0 ?x2275))))
 (let (($x675 (not (and (or (not R_S1_V1) (= E1_!2463 ?x2956)) $x3352 $x3303 $x1876 $x4663))))
 (let (($x372 (and (or (not R_S2_V1) (= ?x1750 (+ (- 1) ?x3075))) (or $x2392 (= (ite MW_S2_V3 S2_V3_!2454 (ite MW_S1_V3 S1_V3_!2448 V3_0)) ?x2450)) (or (not R_S2_V2) (= (ite MW_S2_V2 S2_V2_!2455 ?x5888) ?x4671)) (or $x5434 (= (ite MW_S2_V5 S2_V5_!2456 (ite MW_S1_V5 S1_V5_!2450 V5_0)) ?x2850)) (or $x1036 (= (ite MW_S2_V4 S2_V4_!2457 (ite MW_S1_V4 S1_V4_!2451 V4_0)) ?x293)))))
 (let (($x825 (not $x372)))
 (let (($x2507 (and (or (not R_S1_V1) (= ?x674 (+ (- 1) E1_!2463))) $x3168 $x3698 $x5021 $x3924)))
 (let (($x2741 (not $x2507)))
 (let (($x2605 (and (or (not R_S2_V1) (= ?x1750 (+ (- 1) ?x683))) (or $x2392 (= (ite MW_S2_V3 S2_V3_!2454 (ite MW_S1_V3 S1_V3_!2448 V3_0)) ?x1124)) (or (not R_S2_V2) (= (ite MW_S2_V2 S2_V2_!2455 ?x5888) ?x4720)) (or $x5434 (= (ite MW_S2_V5 S2_V5_!2456 (ite MW_S1_V5 S1_V5_!2450 V5_0)) ?x88)) (or $x1036 (= (ite MW_S2_V4 S2_V4_!2457 (ite MW_S1_V4 S1_V4_!2451 V4_0)) ?x1317)))))
 (let (($x6066 (not $x2605)))
 (let (($x1662 (= E1_!2463 E1_!2446)))
 (let (($x6016 (and (or (not R_E1_V2) (= ?x5888 V2_0)) (or (not R_E1_V5) (= (ite MW_S1_V5 S1_V5_!2450 V5_0) V5_0)) (or (not R_E1_V4) (= (ite MW_S1_V4 S1_V4_!2451 V4_0) V4_0)))))
 (let (($x3705 (not $x6016)))
 (let (($x6032 (or $x1036 (= (ite MW_S2_V4 S2_V4_!2457 (ite MW_S1_V4 S1_V4_!2451 V4_0)) (ite MW_S1_V4 S1_V4_!2451 V4_0)))))
 (let (($x5949 (or $x5434 (= (ite MW_S2_V5 S2_V5_!2456 (ite MW_S1_V5 S1_V5_!2450 V5_0)) (ite MW_S1_V5 S1_V5_!2450 V5_0)))))
 (let (($x3370 (or $x2392 (= (ite MW_S2_V3 S2_V3_!2454 (ite MW_S1_V3 S1_V3_!2448 V3_0)) (ite MW_S1_V3 S1_V3_!2448 V3_0)))))
 (let (($x1646 (and (or (not R_S2_V1) (= ?x1750 (+ (- 1) E1_!2452))) $x3370 (or (not R_S2_V2) (= (ite MW_S2_V2 S2_V2_!2455 ?x5888) ?x5888)) $x5949 $x6032)))
 (let (($x1721 (or (not (and (or (not R_S1_V1) (= E1_!2446 ?x2956)) $x3352 $x3303 $x1876 $x4663)) (= S1_V1_!2447 S1_V1_!2474))))
 (let (($x4278 (and $x1721 (or (not (or (not R_S1_V1) $x1662)) (= S1_V1_!2464 S1_V1_!2447)) (or $x675 (= S1_V1_!2464 S1_V1_!2474)) (or $x813 (= S2_V5_!2456 S2_V5_!2472)) (or (not $x1646) (= S2_V5_!2461 S2_V5_!2456)) (or $x6066 (= S2_V5_!2461 S2_V5_!2472)) (or $x2859 (= S2_V5_!2482 S2_V5_!2456)) (or $x3543 (= S2_V5_!2482 S2_V5_!2461)) (or $x1426 (= S2_V5_!2482 S2_V5_!2472)) (or (not (or (not R_S1_V1) $x1662)) (= S1_V3_!2465 S1_V3_!2448)) (or $x675 (= S1_V3_!2465 S1_V3_!2475)) (or $x3341 (= S1_V3_!2475 S1_V3_!2448)) (or (not (or (not R_S1_V1) $x1662)) (= S1_V2_!2466 S1_V2_!2449)) (or $x3341 (= S1_V2_!2476 S1_V2_!2449)) (or $x2741 (= S1_V2_!2476 S1_V2_!2466)) (or $x3705 (= E1_!2452 E1_!2446)) (or $x3705 (= E1_!2452 E1_!2463)) $x1662 (or $x4759 (= S2_V4_!2457 S2_V4_!2462)) (or $x813 (= S2_V4_!2457 S2_V4_!2473)) (or $x5296 (= S2_V4_!2457 S2_V4_!2483)) (or $x6066 (= S2_V4_!2462 S2_V4_!2473)) (or $x825 (= S2_V4_!2462 S2_V4_!2483)) (or $x1426 (= S2_V4_!2483 S2_V4_!2473)) (or (not (or (not R_S1_V1) $x1662)) (= S1_V5_!2467 S1_V5_!2450)) (or $x3341 (= S1_V5_!2477 S1_V5_!2450)) (or $x2741 (= S1_V5_!2477 S1_V5_!2467)) (or $x4759 (= S2_V1_!2453 S2_V1_!2458)) (or $x5296 (= S2_V1_!2453 S2_V1_!2479)) (or $x825 (= S2_V1_!2458 S2_V1_!2479)) (or $x31 (= S2_V1_!2469 S2_V1_!2453)) (or $x3226 (= S2_V1_!2469 S2_V1_!2458)) (or $x1569 (= S2_V1_!2469 S2_V1_!2479)) (or (not (or (not R_S1_V1) $x1662)) (= S1_V4_!2468 S1_V4_!2451)) (or $x675 $x5315) (or $x3341 (= S1_V4_!2478 S1_V4_!2451)) (or $x4759 (= S2_V2_!2455 S2_V2_!2460)) (or $x31 $x2176) (or $x3226 (= S2_V2_!2471 S2_V2_!2460)) (or $x1569 $x2384) (or $x2859 $x5185) (or $x3543 (= S2_V2_!2481 S2_V2_!2460)) (or $x4759 $x338) (or $x813 $x2108) (or $x5296 $x606) (or $x3226 $x2425) (or $x3543 $x600) (or $x1426 $x2563) (not MW_S1_V1) (not MW_S1_V2) (or (not MW_S1_V5) W_S1_V5) (or (not MW_S1_V4) W_S1_V4) (or (not MW_S2_V1) W_S2_V1) (or (not MW_S2_V3) W_S2_V3) (or (not MW_S2_V2) W_S2_V2) (or (not MW_S2_V5) W_S2_V5))))
 (or (not $x4278) (not $x5952) (and (= ?x3231 ?x2408) $x3476 (= ?x1765 ?x3893) $x1711 $x4892))))))))))))))))))))))))))))))))))))))))))))))))))))))))))))))))))))))))))))))))))))))))))))))
 )
 )
 )
 )
 )
 )
 )
 )
 )
 )
 )
 )
 )
 )
 )
 )
 )
 )
 )
 )
 )
 )
 )
 )
 )
 )
 )
 )
 )
 )
 )
 )
 )
 )
 )
 )
 )
 )
 )
 )
 )
 )
 )
 )
 )
 )
 )
 )
 )
 )
 )
 ))
 (let (($x2711 (not (or (and W_S2_V2 R_E1_V2) (and W_S2_V5 R_E1_V5) R_E1_V4))))
 (let (($x1320 (= DISJ_W_S2_R_E1 $x2711)))
 (let (($x243 (and W_S2_V5 R_S2_V5)))
 (let (($x313 (and W_S2_V2 R_S2_V2)))
 (let (($x2012 (and W_S2_V3 R_S2_V3)))
 (let (($x248 (and W_S2_V1 R_S2_V1)))
 (let (($x4224 (= DISJ_W_S2_R_S2 (not (or $x248 $x2012 $x313 $x243 R_S2_V4)))))
 (let (($x5925 (and W_S2_V5 R_S1_V5)))
 (let (($x977 (and W_S2_V2 R_S1_V2)))
 (let (($x3045 (and W_S2_V3 R_S1_V3)))
 (let (($x5942 (and W_S2_V1 R_S1_V1)))
 (let (($x1670 (= DISJ_W_S2_R_S1 (not (or $x5942 $x3045 $x977 $x5925 R_S1_V4)))))
 (let (($x401 (= DISJ_W_S1_W_S2 (not (or W_S2_V3 (and W_S1_V5 W_S2_V5) W_S1_V4)))))
 (let (($x5351 (not R_E1_V3)))
 (let (($x4571 (not (or R_S2_V3 (and W_S1_V5 R_S2_V5) (and W_S1_V4 R_S2_V4)))))
 (let (($x3587 (= DISJ_W_S1_R_S2 $x4571)))
 (let (($x2526 (not (or R_S1_V3 (and W_S1_V5 R_S1_V5) (and W_S1_V4 R_S1_V4)))))
 (let (($x4397 (= DISJ_W_S1_R_S1 $x2526)))
 (let (($x572 (not R_S1_V1)))
 (let (($x2150 (and $x572 DISJ_W_S1_R_S1)))
 (let (($x5438 (and $x1879 DISJ_W_S2_R_S1 DISJ_W_S1_R_S1)))
 (let (($x3137 (or $x5438 $x2467 $x2150)))
 (let (($x1638 (not W_S1_V2)))
 (let (($x1974 (not W_S1_V1)))
 (let (($x4983 (not R_E1_V1)))
 (let (($x3536 (and DISJ_W_S1_R_E1 $x4983 $x1974 $x1638 $x3137 W_S1_V3 W_S2_V4 $x4397 $x3587 $x5351 $x401 $x1670 $x4224 $x1320 $x4992 $x2109 $x5006)))
 (and $x3536 $x1982 $x2328 $x2327 $x5735 $x5539 $x420 $x3987)))))))))))))))))))))))))))))))))))))))))
(check-sat)
